HUN,8,6,623
4,9,2,19,5,17,3,5,0,16,1,3
1,6,0,10,5,13,2,17,3,23,4,17
5,25,4,28,2,14,0,26,3,24,1,9
4,4,0,28,3,23,2,2,5,28,1,25
2,4,0,25,5,12,3,4,4,30,1,1
4,15,2,19,1,30,0,11,5,27,3,2
5,19,0,21,2,22,1,21,4,28,3,6
2,15,0,8,1,5,3,12,5,17,4,24
